p cnf 7230 17
-2220 -2922 3485 0
2922 -3485 0
-2226 -2928 -3490 0
-2926 -3024 -3488 0
-2924 -3258 -3486 0
2226 -3491 0
2926 -3489 0
2924 -3487 0
3490 3491 0
3488 3489 0
3486 3487 0
2928 -3491 0
3024 -3489 0
3258 -3487 0
2232 -3493 0
3484 3485 0
-3484 -3485 0
